output_file = "7-1-C-100-2.00-131.csv";

n_days = 100;
n_shelves = 7;
n_crops = 1;

crop_shelf_compatible = [
    [1, 1, 1, 1, 1, 1, 1]
];

crop_growth_days = [15];

n_configurations = 2;

crop_growth_day_config = [
    [1, 1, 1, 2, 2, 2, 2, 2, 2, 2, 2, 2, 2, 2, 2]
];

capacity = [
    [12, 12],
[12, 12],
[12, 12],
[12, 12],
[12, 12],
[12, 12],
[12, 12]
];

demand = [
    [0, 0, 0, 0, 0, 0, 0, 0, 0, 0, 0, 0, 0, 0, 0, 0, 0, 0, 0, 16, 4, 0, 0, 0, 8, 0, 10, 2, 0, 0, 0, 0, 22, 0, 4, 0, 0, 0, 0, 22, 8, 0, 6, 0, 0, 10, 0, 0, 6, 0, 0, 0, 0, 0, 0, 0, 0, 4, 0, 0, 12, 0, 0, 0, 0, 0, 0, 0, 0, 0, 0, 4, 0, 0, 0, 16, 4, 0, 0, 0, 0, 0, 8, 0, 8, 4, 8, 8, 0, 10, 0, 0, 0, 6, 0, 0, 0, 4, 0, 0]
];
